100
36 140 288 216 72 42 126 324 56 112 324 98 216 180 140 216 140 126 216 216 72 324 14 42 180 360 180 252 56 56 360 36 112 108 72 14 126 112 36 140 70 98 108 180 56 144 36 288 108 360 108 36 252 36 42 28 288 360 108 36 42 324 36 108 42 72 140 360 140 112 180 42 126 56 112 126 98 42 360 140 252 324 140 36 98 112 108 360 324 126 126 324 252 126 70 36 216 126 72 112 
21 90 168 126 42 27 81 189 36 72 189 63 126 105 90 126 90 81 126 126 42 189 9 27 105 210 105 147 36 36 210 21 72 63 42 9 81 72 21 90 45 63 63 105 36 84 21 168 63 210 63 21 147 21 27 18 168 210 63 21 27 189 21 63 27 42 90 210 90 72 105 27 81 36 72 81 63 27 210 90 147 189 90 21 63 72 63 210 189 81 81 189 147 81 45 21 126 81 42 72 
7265
